/*********************************************
    * Lab01 - FCD_FCR
    * Author: Coso
    * Creation Date: Mar, 2019
    *********************************************/
instance_name = "small_instance_09_FCD_FCR";

d = 2;
r = 3;

SCj = [35 33];
Fj = [3724, 1347];
Dk = [12 25 24];

Cjk = [[72 59 32]
 [67 45 31]];
Fjk = [[717 510 568]
 [360 429 479]];
